small
0 34 0.42
1 26 0.75
2 27 0.67
3 27 0.59
4 33 0.76
5 30 0.53
6 30 0.56
7 30 0.41
8 29 0.57
9 31 0.53
10 27 0.69
11 32 0.68
12 30 0.49
13 32 0.59
14 25 0.54
medium
0 273 64.98
1 294 86.6
2 289 79.56
3 266 43.11
4 253 35.28
5 267 72.43
6 263 75.18
7 282 59.86
8 276 64.23
9 256 27.52
10 271 65.74
11 264 69.26
12 297 51.07
13 261 42.86
14 278 49.86
large
0 1441 600.8
1 1524 600.67
2 1455 600.42
3 1442 600.87
4 1466 600.7
5 1547 600.55
6 1436 600.92
7 1482 600.56
8 1494 600.75
9 1445 600.71
10 1455 600.48
11 1473 600.05
12 1454 600.6
13 1496 600.34
14 1453 600.87
